Running for instance ./models/c207.txt
Generating routes...
Execution time:  0.11611015  minutes
Academic license - for non-commercial use only
Warning: constraint name "Cliente esta na rota" has a space
Optimize a model with 26 rows, 5000 columns and 44664 nonzeros
Variable types: 0 continuous, 5000 integer (0 binary)
Coefficient statistics:
  Matrix range     [1e+00, 1e+00]
  Objective range  [3e+01, 3e+02]
  Bounds range     [1e+00, 1e+00]
  RHS range        [1e+00, 2e+01]
Found heuristic solution: objective 663.2814621
Presolve removed 2 rows and 3162 columns
Presolve time: 0.04s
Presolved: 24 rows, 1838 columns, 15384 nonzeros
Found heuristic solution: objective 465.2992924
Variable types: 0 continuous, 1838 integer (1838 binary)

Root relaxation: objective 2.815433e+02, 62 iterations, 0.00 seconds

    Nodes    |    Current Node    |     Objective Bounds      |     Work
 Expl Unexpl |  Obj  Depth IntInf | Incumbent    BestBd   Gap | It/Node Time

     0     0  281.54330    0    9  465.29929  281.54330  39.5%     -    0s
H    0     0                     318.6723617  281.54330  11.7%     -    0s
H    0     0                     308.2922135  281.54330  8.68%     -    0s
     0     0  284.11119    0    9  308.29221  284.11119  7.84%     -    0s
     0     0  284.11119    0    9  308.29221  284.11119  7.84%     -    0s
     0     0  284.11119    0    9  308.29221  284.11119  7.84%     -    0s
     0     0  286.27990    0   17  308.29221  286.27990  7.14%     -    0s
H    0     0                     302.5793400  286.27990  5.39%     -    0s
     0     0  287.65339    0   13  302.57934  287.65339  4.93%     -    0s
     0     0  289.23684    0   13  302.57934  289.23684  4.41%     -    0s
     0     0  289.72034    0   14  302.57934  289.72034  4.25%     -    0s
     0     0  290.06191    0   10  302.57934  290.06191  4.14%     -    0s
H    0     0                     301.6904703  290.06191  3.85%     -    0s
H    0     0                     294.1809081  290.06191  1.40%     -    0s
     0     0     cutoff    0       294.18091  294.18091  0.00%     -    0s

Cutting planes:
  MIR: 6
  Zero half: 4

Explored 1 nodes (183 simplex iterations) in 0.10 seconds
Thread count was 8 (of 8 available processors)

Solution count 6: 294.181 301.69 302.579 ... 465.299

Optimal solution found (tolerance 1.00e-04)
Best objective 2.941809081074e+02, best bound 2.941809081074e+02, gap 0.0000%
5 2 1 3 7
22 20 24 6 23 14 16 12 19
8 10 11 9 15 17 13 25
Distance: 294.180908107
Execution time:  0.123491883333  minutes
